[28080, 27936, 25908, 25424, 24480, 24480, 18766, 21658, 20020, 20020, 18384, 18238, 18060, 17754, 16680, 16680, 15920, 15462, 14900, 14900, 14076, 12928, 11552, 11552, 10864, 10402, 9864, 9444, 8928, 8928, 8868, 8868, 8664, 8532, 8196, 7740, 7610, 7610, 7470, 7450, 6416, 6136, 6152, 5004, 5004, 3140, 3140, 3120, 1576, 1576, 1576, 1574, 1574, 1574, 1570, 1512, 1512, 1512, 1512, 1512, 1498, 1498, 1474, 1474, 1474, 1474, 1474, 1412, 1412, 1430, 1474, 1474, 1474, 1474, 1474, 1418, 1474, 1464, 1464, 1464, 1464, 1464, 1464, 1464, 1464, 1464, 1464, 1412, 1412, 1412, 1412, 1356, 1356, 1356, 1356, 1356, 1356, 1356, 1356, 1356, 1356, 1356, 1356, 1356, 1356, 1356, 1356, 1356, 1356, 1356, 1356, 1356, 1356, 1356, 1356, 1356, 1356, 1356, 1356, 1356, 1356, 1356, 1356, 1356, 1356, 1356, 1356, 1356, 1356, 1356, 1356, 1356, 1356, 1356, 1356, 1356, 1356, 1356, 1356, 1356, 1356, 1356, 1356, 1356, 1356, 1356, 1356, 1356, 1356, 1356, 1356, 1356, 1356, 1356, 1356, 1356, 1356, 1356, 1356, 1356, 1356, 1356, 1356, 1356, 1356, 1356, 1356, 1356, 1356, 1356, 1356, 1356, 1356, 1356, 1356, 1356, 1356, 1356, 1356, 1356, 1356, 1356, 1356, 1356, 1356, 1356, 1356, 1356, 1356, 1356, 1356, 1356, 1356, 1356, 1356, 1356, 1356, 1356, 1356, 1356]